n=9;
max_cost=25;
congestion_graph=array2d(1..n,1..n,[0,0,3,2,0,0,5,4,0,0,0,0,0,0,0,0,0,0,2,3,0,0,23,22,0,0,21,20,0,0,0,0,0,0,0,0,0,0,22,23,0,0,0,0,0,0,19,18,0,0,0,0,0,0,4,5,0,0,0,0,0,0,8,9,7,6,0,0,0,0,0,0,0,0,20,21,0,0,9,8,0,0,17,16,0,0,25,24,0,0,0,0,0,0,18,19,0,0,16,17,0,0,0,0,0,0,15,14,0,0,0,0,0,0,6,7,0,0,0,0,0,0,10,11,0,0,0,0,0,0,0,0,0,0,24,25,0,0,11,10,0,0,13,12,0,0,0,0,0,0,0,0,0,0,14,15,0,0,12,13,0,0]);


max_turn=25;


prev=array3d(1..n,1..n,0..1,[0,0,3,2,0,0,5,4,0,0,0,0,0,0,0,0,0,0,2,3,0,0,2,1,0,0,3,4,0,0,0,0,0,0,0,0,0,0,4,2,0,0,0,0,0,0,9,8,0,0,0,0,0,0,4,5,0,0,0,0,0,0,8,9,7,6,0,0,0,0,0,0,0,0,2,4,0,0,4,5,0,0,2,3,0,0,1,10,0,0,0,0,0,0,10,11,0,0,11,2,0,0,0,0,0,0,3,6,0,0,0,0,0,0,6,7,0,0,0,0,0,0,4,5,0,0,0,0,0,0,0,0,0,0,4,5,0,0,4,7,0,0,4,6,0,0,0,0,0,0,0,0,0,0,5,7,0,0,4,3,0,0]);

%passed